certificates/rado_a15_c140_N42.cnf
c Rad2 upper bound instance: x1 + 15*x2 - x3 = 140, interval [1,42]
p cnf 42 234
1 10 11 0
-1 -10 -11 0
1 11 26 0
-1 -11 -26 0
1 12 41 0
-1 -12 -41 0
2 10 12 0
-2 -10 -12 0
2 11 27 0
-2 -11 -27 0
2 12 42 0
-2 -12 -42 0
3 10 13 0
-3 -10 -13 0
3 11 28 0
-3 -11 -28 0
4 10 14 0
-4 -10 -14 0
4 11 29 0
-4 -11 -29 0
5 10 15 0
-5 -10 -15 0
5 11 30 0
-5 -11 -30 0
1 6 9 0
-1 -6 -9 0
6 10 16 0
-6 -10 -16 0
6 11 31 0
-6 -11 -31 0
2 7 9 0
-2 -7 -9 0
7 10 17 0
-7 -10 -17 0
7 11 32 0
-7 -11 -32 0
3 8 9 0
-3 -8 -9 0
8 10 18 0
-8 -10 -18 0
8 11 33 0
-8 -11 -33 0
4 9 0
-4 -9 0
9 10 19 0
-9 -10 -19 0
9 11 34 0
-9 -11 -34 0
5 9 10 0
-5 -9 -10 0
10 20 0
-10 -20 0
10 11 35 0
-10 -11 -35 0
6 9 11 0
-6 -9 -11 0
10 11 21 0
-10 -11 -21 0
11 36 0
-11 -36 0
7 9 12 0
-7 -9 -12 0
10 12 22 0
-10 -12 -22 0
11 12 37 0
-11 -12 -37 0
8 9 13 0
-8 -9 -13 0
10 13 23 0
-10 -13 -23 0
11 13 38 0
-11 -13 -38 0
9 14 0
-9 -14 0
10 14 24 0
-10 -14 -24 0
11 14 39 0
-11 -14 -39 0
9 10 15 0
-9 -10 -15 0
10 15 25 0
-10 -15 -25 0
11 15 40 0
-11 -15 -40 0
9 11 16 0
-9 -11 -16 0
10 16 26 0
-10 -16 -26 0
11 16 41 0
-11 -16 -41 0
9 12 17 0
-9 -12 -17 0
10 17 27 0
-10 -17 -27 0
11 17 42 0
-11 -17 -42 0
9 13 18 0
-9 -13 -18 0
10 18 28 0
-10 -18 -28 0
9 14 19 0
-9 -14 -19 0
10 19 29 0
-10 -19 -29 0
9 15 20 0
-9 -15 -20 0
10 20 30 0
-10 -20 -30 0
1 8 21 0
-1 -8 -21 0
9 16 21 0
-9 -16 -21 0
10 21 31 0
-10 -21 -31 0
2 8 22 0
-2 -8 -22 0
9 17 22 0
-9 -17 -22 0
10 22 32 0
-10 -22 -32 0
3 8 23 0
-3 -8 -23 0
9 18 23 0
-9 -18 -23 0
10 23 33 0
-10 -23 -33 0
4 8 24 0
-4 -8 -24 0
9 19 24 0
-9 -19 -24 0
10 24 34 0
-10 -24 -34 0
5 8 25 0
-5 -8 -25 0
9 20 25 0
-9 -20 -25 0
10 25 35 0
-10 -25 -35 0
6 8 26 0
-6 -8 -26 0
9 21 26 0
-9 -21 -26 0
10 26 36 0
-10 -26 -36 0
7 8 27 0
-7 -8 -27 0
9 22 27 0
-9 -22 -27 0
10 27 37 0
-10 -27 -37 0
8 28 0
-8 -28 0
9 23 28 0
-9 -23 -28 0
10 28 38 0
-10 -28 -38 0
8 9 29 0
-8 -9 -29 0
9 24 29 0
-9 -24 -29 0
10 29 39 0
-10 -29 -39 0
8 10 30 0
-8 -10 -30 0
9 25 30 0
-9 -25 -30 0
10 30 40 0
-10 -30 -40 0
8 11 31 0
-8 -11 -31 0
9 26 31 0
-9 -26 -31 0
10 31 41 0
-10 -31 -41 0
8 12 32 0
-8 -12 -32 0
9 27 32 0
-9 -27 -32 0
10 32 42 0
-10 -32 -42 0
8 13 33 0
-8 -13 -33 0
9 28 33 0
-9 -28 -33 0
8 14 34 0
-8 -14 -34 0
9 29 34 0
-9 -29 -34 0
8 15 35 0
-8 -15 -35 0
9 30 35 0
-9 -30 -35 0
1 7 36 0
-1 -7 -36 0
8 16 36 0
-8 -16 -36 0
9 31 36 0
-9 -31 -36 0
2 7 37 0
-2 -7 -37 0
8 17 37 0
-8 -17 -37 0
9 32 37 0
-9 -32 -37 0
3 7 38 0
-3 -7 -38 0
8 18 38 0
-8 -18 -38 0
9 33 38 0
-9 -33 -38 0
4 7 39 0
-4 -7 -39 0
8 19 39 0
-8 -19 -39 0
9 34 39 0
-9 -34 -39 0
5 7 40 0
-5 -7 -40 0
8 20 40 0
-8 -20 -40 0
9 35 40 0
-9 -35 -40 0
6 7 41 0
-6 -7 -41 0
8 21 41 0
-8 -21 -41 0
9 36 41 0
-9 -36 -41 0
7 42 0
-7 -42 0
8 22 42 0
-8 -22 -42 0
9 37 42 0
-9 -37 -42 0
