certificates/rado_a15_c140_N42.drat
9 -42 0
36 -42 0
-42 0
7 0
-9 0
4 0
14 0
37 0
-39 0
-10 0
-2 0
34 0
12 0
19 0
20 0
15 0
5 0
32 0
29 0
-8 0
-11 0
-40 0
3 0
18 0
13 0
22 0
28 0
30 0
27 0
33 0
35 0
21 0
36 0
16 0
17 0
31 0
6 0
1 0
-38 0
0
